; Copyright (c) 2026 The RIINA Authors. All rights reserved.
; Auto-generated from 02_FORMAL/coq/domains/SQLInjectionPrevention.v (22 validations)
; Generated by scripts/generate-full-stack.py
;
; Translation Validation for SQLInjectionPrevention
; Layer 9: Verifies compiler backend preserves formal semantics.
; Each assertion checks source IR ≡ target code for a proven property.

(set-logic QF_LIA)
(set-option :produce-models true)

; IR node representation
(declare-sort IRNode 0)
(declare-sort TargetNode 0)

; taint_safe: source semantics (matches Coq)
(declare-fun source_taint_safe () Bool)
(declare-fun target_taint_safe () Bool)
(assert (= source_taint_safe target_taint_safe))

; method_safe: source semantics (matches Coq)
(declare-fun source_method_safe () Bool)
(declare-fun target_method_safe () Bool)
(assert (= source_method_safe target_method_safe))

; sql_injection_protected: source semantics (matches Coq)
(declare-fun source_sql_injection_protected () Bool)
(declare-fun target_sql_injection_protected () Bool)
(assert (= source_sql_injection_protected target_sql_injection_protected))

; riina_sql_config: source semantics (matches Coq)
(declare-fun source_riina_sql_config () Bool)
(declare-fun target_riina_sql_config () Bool)
(assert (= source_riina_sql_config target_riina_sql_config))

; andb_true_iff: translation preserves property (matches Coq: Lemma)
(declare-fun source_andb_true_iff () Bool)
(declare-fun target_andb_true_iff () Bool)
(assert (= source_andb_true_iff target_andb_true_iff))

; SQLI_001_untainted_safe: translation preserves property (matches Coq: Theorem)
(declare-fun source_SQLI_001_untainted_safe () Bool)
(declare-fun target_SQLI_001_untainted_safe () Bool)
(assert (= source_SQLI_001_untainted_safe target_SQLI_001_untainted_safe))

; SQLI_002_sanitized_safe: translation preserves property (matches Coq: Theorem)
(declare-fun source_SQLI_002_sanitized_safe () Bool)
(declare-fun target_SQLI_002_sanitized_safe () Bool)
(assert (= source_SQLI_002_sanitized_safe target_SQLI_002_sanitized_safe))

; SQLI_003_userinput_unsafe: translation preserves property (matches Coq: Theorem)
(declare-fun source_SQLI_003_userinput_unsafe () Bool)
(declare-fun target_SQLI_003_userinput_unsafe () Bool)
(assert (= source_SQLI_003_userinput_unsafe target_SQLI_003_userinput_unsafe))

; SQLI_004_parameterized_safe: translation preserves property (matches Coq: Theorem)
(declare-fun source_SQLI_004_parameterized_safe () Bool)
(declare-fun target_SQLI_004_parameterized_safe () Bool)
(assert (= source_SQLI_004_parameterized_safe target_SQLI_004_parameterized_safe))

; SQLI_005_orm_safe: translation preserves property (matches Coq: Theorem)
(declare-fun source_SQLI_005_orm_safe () Bool)
(declare-fun target_SQLI_005_orm_safe () Bool)
(assert (= source_SQLI_005_orm_safe target_SQLI_005_orm_safe))

; SQLI_006_concat_unsafe: translation preserves property (matches Coq: Theorem)
(declare-fun source_SQLI_006_concat_unsafe () Bool)
(declare-fun target_SQLI_006_concat_unsafe () Bool)
(assert (= source_SQLI_006_concat_unsafe target_SQLI_006_concat_unsafe))

; SQLI_007_riina_protected: translation preserves property (matches Coq: Theorem)
(declare-fun source_SQLI_007_riina_protected () Bool)
(declare-fun target_SQLI_007_riina_protected () Bool)
(assert (= source_SQLI_007_riina_protected target_SQLI_007_riina_protected))

; SQLI_008_parameterized_required: translation preserves property (matches Coq: Theorem)
(declare-fun source_SQLI_008_parameterized_required () Bool)
(declare-fun target_SQLI_008_parameterized_required () Bool)
(assert (= source_SQLI_008_parameterized_required target_SQLI_008_parameterized_required))

; SQLI_009_no_concat_required: translation preserves property (matches Coq: Theorem)
(declare-fun source_SQLI_009_no_concat_required () Bool)
(declare-fun target_SQLI_009_no_concat_required () Bool)
(assert (= source_SQLI_009_no_concat_required target_SQLI_009_no_concat_required))

; SQLI_010_sanitization_required: translation preserves property (matches Coq: Theorem)
(declare-fun source_SQLI_010_sanitization_required () Bool)
(declare-fun target_SQLI_010_sanitization_required () Bool)
(assert (= source_SQLI_010_sanitization_required target_SQLI_010_sanitization_required))

; SQLI_011_whitelist_required: translation preserves property (matches Coq: Theorem)
(declare-fun source_SQLI_011_whitelist_required () Bool)
(declare-fun target_SQLI_011_whitelist_required () Bool)
(assert (= source_SQLI_011_whitelist_required target_SQLI_011_whitelist_required))

; SQLI_012_escape_required: translation preserves property (matches Coq: Theorem)
(declare-fun source_SQLI_012_escape_required () Bool)
(declare-fun target_SQLI_012_escape_required () Bool)
(assert (= source_SQLI_012_escape_required target_SQLI_012_escape_required))

; SQLI_013_riina_parameterized: translation preserves property (matches Coq: Theorem)
(declare-fun source_SQLI_013_riina_parameterized () Bool)
(declare-fun target_SQLI_013_riina_parameterized () Bool)
(assert (= source_SQLI_013_riina_parameterized target_SQLI_013_riina_parameterized))

; SQLI_014_sanitization_makes_safe: translation preserves property (matches Coq: Theorem)
(declare-fun source_SQLI_014_sanitization_makes_safe () Bool)
(declare-fun target_SQLI_014_sanitization_makes_safe () Bool)
(assert (= source_SQLI_014_sanitization_makes_safe target_SQLI_014_sanitization_makes_safe))

; SQLI_015_complete_prevention: translation preserves property (matches Coq: Theorem)
(declare-fun source_SQLI_015_complete_prevention () Bool)
(declare-fun target_SQLI_015_complete_prevention () Bool)
(assert (= source_SQLI_015_complete_prevention target_SQLI_015_complete_prevention))

; untainted_safe: translation preserves property (matches Coq: Theorem)
(declare-fun source_untainted_safe () Bool)
(declare-fun target_untainted_safe () Bool)
(assert (= source_untainted_safe target_untainted_safe))

; sanitized_safe: translation preserves property (matches Coq: Theorem)
(declare-fun source_sanitized_safe () Bool)
(declare-fun target_sanitized_safe () Bool)
(assert (= source_sanitized_safe target_sanitized_safe))

; user_input_unsafe: translation preserves property (matches Coq: Theorem)
(declare-fun source_user_input_unsafe () Bool)
(declare-fun target_user_input_unsafe () Bool)
(assert (= source_user_input_unsafe target_user_input_unsafe))

; string_concat_unsafe: translation preserves property (matches Coq: Theorem)
(declare-fun source_string_concat_unsafe () Bool)
(declare-fun target_string_concat_unsafe () Bool)
(assert (= source_string_concat_unsafe target_string_concat_unsafe))

; parameterized_safe: translation preserves property (matches Coq: Theorem)
(declare-fun source_parameterized_safe () Bool)
(declare-fun target_parameterized_safe () Bool)
(assert (= source_parameterized_safe target_parameterized_safe))

; riina_config_protected: translation preserves property (matches Coq: Theorem)
(declare-fun source_riina_config_protected () Bool)
(declare-fun target_riina_config_protected () Bool)
(assert (= source_riina_config_protected target_riina_config_protected))

; Verify all translation validations are satisfiable
(check-sat)
(exit)
